words_hard_train/6300.qaiger
aag 48 12 0 1 36
2
4
8
12
16
24
28
36
42
50
64
72
97
6 2 4
10 6 8
14 10 12
18 15 17
20 14 16
22 19 21
26 23 24
30 21 29
32 20 28
34 31 33
38 35 36
40 27 39
44 33 43
46 32 42
48 45 47
52 48 51
54 41 53
56 34 37
58 54 57
60 49 50
62 59 61
66 46 65
68 47 64
70 67 69
74 70 72
76 63 75
78 71 73
80 77 79
82 42 65
84 82 13
86 84 16
88 10 28
90 86 88
92 81 91
94 80 90
96 93 95
i0 2 y2[1]
i1 2 y2[3]
i2 2 y2[2]
i3 2 y2[0]
i4 2 y2[4]
i5 1 x1[0]
i6 2 y2[5]
i7 1 x1[1]
i8 2 y2[6]
i9 1 x1[2]
i10 2 y2[7]
i11 1 x1[3]
o0 bv[0]
c
simplified
  >=
    << 4
      1 x1
    add
      add
        1
        2 y2
      1
