words_hard_train/6300.qaiger.qdimacs
p cnf 48 109
a 25 18 12 36 0
e 1 2 3 4 5 6 7 8 9 10 11 13 14 15 16 17 19 20 21 22 23 24 26 27 28 29 30 31 32 33 34 35 37 38 39 40 41 42 43 44 45 46 47 48 0
-1 -2 3 0
1 -3 0
2 -3 0
-3 -4 5 0
3 -5 0
4 -5 0
-5 -6 7 0
5 -7 0
6 -7 0
7 8 9 0
-7 -9 0
-8 -9 0
-7 -8 10 0
7 -10 0
8 -10 0
9 10 11 0
-9 -11 0
-10 -11 0
11 -12 13 0
-11 -13 0
12 -13 0
10 14 15 0
-10 -15 0
-14 -15 0
-10 -14 16 0
10 -16 0
14 -16 0
15 16 17 0
-15 -17 0
-16 -17 0
17 -18 19 0
-17 -19 0
18 -19 0
13 19 20 0
-13 -20 0
-19 -20 0
16 21 22 0
-16 -22 0
-21 -22 0
-16 -21 23 0
16 -23 0
21 -23 0
22 23 24 0
-22 -24 0
-23 -24 0
-24 25 26 0
24 -26 0
-25 -26 0
20 26 27 0
-20 -27 0
-26 -27 0
-17 18 28 0
17 -28 0
-18 -28 0
-27 28 29 0
27 -29 0
-28 -29 0
24 -25 30 0
-24 -30 0
25 -30 0
29 30 31 0
-29 -31 0
-30 -31 0
-23 32 33 0
23 -33 0
-32 -33 0
23 -32 34 0
-23 -34 0
32 -34 0
33 34 35 0
-33 -35 0
-34 -35 0
-35 -36 37 0
35 -37 0
36 -37 0
31 37 38 0
-31 -38 0
-37 -38 0
35 36 39 0
-35 -39 0
-36 -39 0
38 39 40 0
-38 -40 0
-39 -40 0
-21 32 41 0
21 -41 0
-32 -41 0
-41 6 42 0
41 -42 0
-6 -42 0
-42 -8 43 0
42 -43 0
8 -43 0
-5 -14 44 0
5 -44 0
14 -44 0
-43 -44 45 0
43 -45 0
44 -45 0
40 45 46 0
-40 -46 0
-45 -46 0
-40 -45 47 0
40 -47 0
45 -47 0
46 47 48 0
-46 -48 0
-47 -48 0
-48 0
